#===============================================================================
# Created using the Atomic Simulation Environment (ASE)

# Thu Feb 29 17:12:10 2024

#=======================================================
lattice_vector 5.6479999999999997 0.0000000000000000 0.0000000000000000 
lattice_vector 0.0000000000000000 5.6479999999999997 0.0000000000000000 
lattice_vector 0.0000000000000000 0.0000000000000000 5.6479999999999997 
atom_frac 0.0000000000000000 0.0000000000000000 0.0000000000000000 Ga
atom_frac 0.0000000000000000 0.5000000000000000 0.5000000000000000 Ga
atom_frac 0.5000000000000000 0.5000000000000000 0.0000000000000000 Ga
atom_frac 0.5000000000000000 0.0000000000000000 0.5000000000000000 Ga
atom_frac 0.7500000000000000 0.2500000000000000 0.7500000000000000 As
atom_frac 0.2500000000000000 0.2500000000000000 0.2500000000000000 As
atom_frac 0.2500000000000000 0.7500000000000000 0.7500000000000000 As
atom_frac 0.7500000000000000 0.7500000000000000 0.2500000000000000 As
