#===============================================================================
# Created using the Atomic Simulation Environment (ASE)

# Fri Mar  1 23:12:51 2024

#=======================================================
lattice_vector 0.0000000000000000 2.8331573099999998 2.8331573099999998 
lattice_vector 2.8331573099999998 0.0000000000000000 2.8331573099999998 
lattice_vector 2.8331573099999998 2.8331573099999998 0.0000000000000000 
atom_frac 0.0000000000000000 0.0000000000000000 -0.0000000000000000 As
atom_frac 0.2500000000000000 0.2500000000000000 0.2500000000000000 Ga
