#===============================================================================
# Created using the Atomic Simulation Environment (ASE)

# Thu Feb 29 18:03:58 2024

#=======================================================
lattice_vector 6.2919999999999998 0.0000000000000000 0.0000000000000000 
lattice_vector 0.7557651540526785 7.6528724699892736 0.0000000000000000 
lattice_vector 0.4626936735250475 3.2459069680407238 14.0323465111614372 
atom_frac 0.0670000000000000 0.2699000000000000 0.1413300000000000 C
atom_frac 0.9330000000000002 0.7301000000000001 0.8586699999999997 C
atom_frac 0.2158000000000000 0.3662000000000000 0.0860400000000000 C
atom_frac 0.7842000000000000 0.6337999999999999 0.9139599999999999 C
atom_frac 0.3999000000000000 0.4101000000000000 0.1292500000000000 C
atom_frac 0.6001000000000001 0.5899000000000006 0.8707499999999999 C
atom_frac 0.4300000000000000 0.3565000000000000 0.2245000000000000 C
atom_frac 0.5700000000000001 0.6435000000000000 0.7755000000000000 C
atom_frac 0.2786000000000000 0.2547100000000000 0.2854300000000000 C
atom_frac 0.7214000000000000 0.7452900000000000 0.7145699999999996 C
atom_frac 0.0912000000000000 0.2111200000000002 0.2417100000000000 C
atom_frac 0.9088000000000003 0.7888800000000005 0.7582900000000000 C
atom_frac 0.3062000000000000 0.1996800000000000 0.3830000000000000 C
atom_frac 0.6938000000000000 0.8003200000000005 0.6169999999999997 C
atom_frac 0.1553900000000000 0.0990100000000000 0.4433000000000000 C
atom_frac 0.8446100000000000 0.9009900000000006 0.5567000000000000 C
atom_frac 0.9684000000000001 0.0554800000000000 0.3991500000000000 C
atom_frac 0.0316000000000000 0.9445200000000006 0.6008500000000000 C
atom_frac 0.9425000000000000 0.1125000000000001 0.2997000000000000 C
atom_frac 0.0575000000000000 0.8875000000000001 0.7002999999999999 C
atom_frac 0.8177700000000002 0.9561600000000001 0.4584900000000000 C
atom_frac 0.1822300000000000 0.0438400000000001 0.5415099999999998 C
atom_frac 0.9456999999999999 0.7095000000000005 0.1972700000000000 C
atom_frac 0.0543000000000000 0.2904999999999999 0.8027300000000001 C
atom_frac 0.9049000000000003 0.8289000000000002 0.1134200000000000 C
atom_frac 0.0950999999999999 0.1710999999999999 0.8865800000000000 C
atom_frac 0.7006000000000000 0.9305000000000000 0.0967600000000000 C
atom_frac 0.2994000000000001 0.0695000000000001 0.9032399999999998 C
atom_frac 0.5431000000000001 0.9075000000000004 0.1648500000000000 C
atom_frac 0.4568999999999999 0.0925000000000002 0.8351499999999997 C
atom_frac 0.5796000000000003 0.7817700000000000 0.2543199999999999 C
atom_frac 0.4203999999999999 0.2182300000000000 0.7456800000000001 C
atom_frac 0.7864700000000000 0.6795700000000001 0.2718300000000000 C
atom_frac 0.2135300000000000 0.3204299999999999 0.7281699999999997 C
atom_frac 0.4216000000000000 0.7547300000000000 0.3253200000000000 C
atom_frac 0.5784000000000001 0.2452700000000001 0.6746799999999996 C
atom_frac 0.4575500000000000 0.6287100000000000 0.4128299999999999 C
atom_frac 0.5424500000000001 0.3712900000000002 0.5871699999999997 C
atom_frac 0.6652900000000000 0.5259099999999999 0.4297100000000000 C
atom_frac 0.3347100000000000 0.4740900000000002 0.5702900000000000 C
atom_frac 0.8251000000000002 0.5558600000000001 0.3573300000000000 C
atom_frac 0.1748999999999999 0.4441399999999999 0.6426700000000000 C
atom_frac 0.2985300000000000 0.5996200000000000 0.4843500000000000 C
atom_frac 0.7014700000000000 0.4003800000000000 0.5156499999999999 C
atom_frac 0.0802000000000000 0.6430000000000002 0.2085000000000000 H
atom_frac 0.9198000000000001 0.3570000000000003 0.7914999999999998 H
atom_frac 0.0158000000000000 0.8454000000000000 0.0630000000000000 H
atom_frac 0.9842000000000002 0.1546000000000000 0.9370000000000001 H
atom_frac 0.6718000000000002 0.0170999999999999 0.0353000000000000 H
atom_frac 0.3281999999999999 0.9829000000000002 0.9647000000000000 H
atom_frac 0.4072999999999999 0.9761000000000004 0.1535000000000000 H
atom_frac 0.5927000000000001 0.0238999999999999 0.8465000000000000 H
atom_frac 0.2852000000000000 0.8227000000000000 0.3131000000000000 H
atom_frac 0.7148000000000000 0.1773000000000000 0.6869000000000001 H
atom_frac 0.9613000000000002 0.4891000000000000 0.3682000000000000 H
atom_frac 0.0386999999999999 0.5109000000000002 0.6317999999999996 H
atom_frac 0.9426000000000000 0.2419000000000000 0.1120000000000000 H
atom_frac 0.0574000000000000 0.7581000000000007 0.8879999999999999 H
atom_frac 0.1966000000000000 0.4055000000000001 0.0161000000000000 H
atom_frac 0.8034000000000000 0.5945000000000003 0.9838999999999998 H
atom_frac 0.5082000000000000 0.4785000000000000 0.0897000000000000 H
atom_frac 0.4918000000000000 0.5215000000000004 0.9102999999999998 H
atom_frac 0.5515000000000000 0.3858000000000000 0.2534000000000000 H
atom_frac 0.4485000000000001 0.6142000000000002 0.7465999999999999 H
atom_frac 0.4283000000000001 0.2296000000000000 0.4107000000000000 H
atom_frac 0.5716999999999999 0.7704000000000000 0.5892999999999999 H
atom_frac 0.8196000000000000 0.0821000000000000 0.2708000000000000 H
atom_frac 0.1804000000000000 0.9178999999999999 0.7292000000000000 H
atom_frac 0.1625000000000000 0.6669000000000004 0.4741999999999998 H
atom_frac 0.8374999999999999 0.3331000000000002 0.5258000000000000 H
atom_frac 0.6951000000000003 0.9270000000000000 0.4308000000000000 H
atom_frac 0.3048999999999999 0.0730000000000000 0.5691999999999999 H
